Traveling Salesman Problem/TSP_generados/Aleatorio1621103368_12.tsp
NAME: Aleatorio1621103368_12.tsp
COMMENT: Randomly generated scenario
TYPE: TSP
DIMENSION: 12
EDGE_WEIGHT_TYPE: ATT
NODE_COORD_SECTION
1 8.58 10.11
2 14.79 12.41
3 0.57 12.27
4 21.25 27.63
5 8.55 9.5
6 36.39 15.3
7 41.59 15.91
8 27.01 43.61
9 29.33 23.75
10 29.21 4.82
11 12.64 31.33
12 1.74 28.63
