Traveling Salesman Problem/TSP_generados/Aleatorio1621103368_12.opt.tour
NAME: Aleatorio1621103368_12.opt.tour
COMMENT: Optimal solution for Aleatorio1621103368_12 (136.95051834340265)
TYPE: TOUR
DIMENSION: 12
TOUR_SECTION
1 2 10 6 7 9 4 8 11 12 3 5
-1
EOF
